50
13178

730 313
393 77
860 556
597 665
187 376
224 677
172 916
199 35
174 947
687 219
699 324
94 348
723 917
776 761
155 72
826 319
724 100
291 252
742 682
945 611
785 819
14 157
452 839
479 869
887 502
739 881
651 291
119 273
29 576
530 761
173 281
982 947
504 203
757 96
866 591
455 507
699 804
312 158
512 669
976 147
88 333
704 492
779 203
261 687
864 619
627 998
162 803
698 135
335 488
984 518
